33 89 72 32 81 39 27 91 88 13 93 22 69 2 25 5 26 68 6 71 45 42 76 19 20 10 90 53 99 75 56 96 30 34 29 84 40 57 77 48 43 37 17 50 4 41 18 49 16 46 51 38 54 36 11 67 23 44 98 15 35 92 28 1 73 87 65 79 60 62 86 74 52 85 0 64 59 31 61 80 58 70 95 55 66 24 14 94 21 78 7 83 8 97 82 3 47 63 12 9 

